# Solution for model r3_t27_m6_2 Batch Number: 3
# Finished Task: 24 / 27
# Makespan: 657.0, Total Distance: 541.0, Total Time: 4.1249
# R O S F Batch
0 0 29 0.0 0.0 -1
1 1 22 0.0 0.0 -1
2 2 24 0.0 0.0 -1
3 -1 -1 -1.0 -1.0 2
4 0 15 278.0 307.0 0
5 1 -1 627.0 657.0 2
6 0 18 164.0 185.0 0
7 0 -1 626.0 657.0 2
8 2 -1 621.0 657.0 2
9 1 25 307.0 342.0 1
10 1 28 197.0 233.0 0
11 -1 -1 -1.0 -1.0 2
12 0 4 234.0 260.0 0
13 2 27 313.0 344.0 1
14 0 6 134.0 156.0 0
15 0 17 478.0 515.0 1
16 -1 -1 -1.0 -1.0 2
17 0 26 542.0 569.0 2
18 0 12 202.0 225.0 0
19 2 13 253.0 289.0 0
20 2 23 407.0 434.0 1
21 2 8 507.0 541.0 2
22 1 10 54.0 74.0 0
23 2 21 449.0 478.0 1
24 2 19 203.0 227.0 0
25 1 5 564.0 584.0 2
26 0 7 569.0 600.0 2
27 2 20 354.0 381.0 1
28 1 9 270.0 307.0 0
29 0 14 79.0 116.0 0
